instances/p1/p1_4_13-3.txt
{
	"num_strings": 4,
	"alphabet": "ACGT",
	"strings": [
		"CAAAAAAAACACA",
		"AAACAAAAAAACC",
		"AAAAAGCAACACA",
		"ACAGACAAACAAC"
	],
	"str_length":[13,13,13,13]
}